language Essence 1.3

letting class be
        function(1 --> 12, 2 --> 14, 3 --> 13, 4 --> 17, 5 --> 5, 6 --> 8, 7 --> 12, 8 --> 9, 9 --> 11, 10 --> 5,
                 11 --> 5, 12 --> 5, 13 --> 3, 14 --> 1, 15 --> 14, 16 --> 7, 17 --> 8, 18 --> 16, 19 --> 4, 20 --> 15,
                 21 --> 11, 22 --> 14, 23 --> 6, 24 --> 2, 25 --> 7, 26 --> 13, 27 --> 18, 28 --> 3, 29 --> 13,
                 30 --> 14, 31 --> 4, 32 --> 7, 33 --> 5, 34 --> 15, 35 --> 18, 36 --> 4, 37 --> 12, 38 --> 10,
                 39 --> 8, 40 --> 10, 41 --> 7, 42 --> 4, 43 --> 11, 44 --> 5, 45 --> 18, 46 --> 7, 47 --> 11,
                 48 --> 16, 49 --> 11, 50 --> 10, 51 --> 12, 52 --> 14, 53 --> 12, 54 --> 13, 55 --> 4, 56 --> 5,
                 57 --> 13)
letting deck_length be 129
letting deck_width be 162
letting length be
        function(1 --> 1, 2 --> 1, 3 --> 1, 4 --> 1, 5 --> 1, 6 --> 1, 7 --> 1, 8 --> 1, 9 --> 1, 10 --> 1, 11 --> 1,
                 12 --> 1, 13 --> 1, 14 --> 1, 15 --> 1, 16 --> 1, 17 --> 122, 18 --> 44, 19 --> 1, 20 --> 1, 21 --> 1,
                 22 --> 1, 23 --> 1, 24 --> 1, 25 --> 1, 26 --> 1, 27 --> 1, 28 --> 1, 29 --> 1, 30 --> 1, 31 --> 1,
                 32 --> 1, 33 --> 1, 34 --> 1, 35 --> 1, 36 --> 1, 37 --> 1, 38 --> 1, 39 --> 1, 40 --> 1, 41 --> 1,
                 42 --> 1, 43 --> 1, 44 --> 1, 45 --> 1, 46 --> 1, 47 --> 1, 48 --> 1, 49 --> 1, 50 --> 1, 51 --> 78,
                 52 --> 1, 53 --> 1, 54 --> 1, 55 --> 1, 56 --> 1, 57 --> 1)
letting n_classes be 18
letting n_containers be 57
letting separation be function({1, 5} --> 89, {1, 6} --> 53)
letting width be
        function(1 --> 1, 2 --> 1, 3 --> 1, 4 --> 1, 5 --> 1, 6 --> 1, 7 --> 1, 8 --> 1, 9 --> 1, 10 --> 1, 11 --> 1,
                 12 --> 1, 13 --> 1, 14 --> 1, 15 --> 1, 16 --> 1, 17 --> 70, 18 --> 20, 19 --> 1, 20 --> 1, 21 --> 1,
                 22 --> 1, 23 --> 1, 24 --> 1, 25 --> 1, 26 --> 1, 27 --> 1, 28 --> 1, 29 --> 1, 30 --> 1, 31 --> 1,
                 32 --> 1, 33 --> 1, 34 --> 1, 35 --> 1, 36 --> 1, 37 --> 1, 38 --> 1, 39 --> 1, 40 --> 1, 41 --> 23,
                 42 --> 1, 43 --> 1, 44 --> 1, 45 --> 1, 46 --> 1, 47 --> 1, 48 --> 1, 49 --> 1, 50 --> 1, 51 --> 12,
                 52 --> 1, 53 --> 1, 54 --> 1, 55 --> 1, 56 --> 17, 57 --> 2)
